(set-logic ALL)
(declare-const title String)
(declare-const lines String)
(assert (< 0 (str.len lines)))
(assert (not (< (str.len (str.at lines 0)) 0)))
(assert (= (+ 0 (str.indexof (str.at lines 0) "\n" 0)) (- 1)))
(assert (not (< (str.len (str.at lines 0)) 0)))
(assert (= (+ 0 (str.indexof (str.at lines 0) " " 0)) (- 1)))
(assert (not (< (str.len (str.at lines 0)) 0)))
(assert (= (+ 0 (str.indexof (str.at lines 0) " " 0)) (- 1)))
(assert (< 1 (str.len lines)))
(assert (not (< (str.len (str.at lines 1)) 0)))
(assert (= (+ 0 (str.indexof (str.at lines 1) "\n" 0)) (- 1)))
(assert (not (< (str.len (str.at lines 1)) 0)))
(assert (= (+ 0 (str.indexof (str.at lines 1) " " 0)) (- 1)))
(assert (not (< (str.len (str.at lines 1)) 0)))
(assert (= (+ 0 (str.indexof (str.at lines 1) " " 0)) (- 1)))
(assert (< 2 (str.len lines)))
(assert (not (< (str.len (str.at lines 2)) 0)))
(assert (= (+ 0 (str.indexof (str.at lines 2) "\n" 0)) (- 1)))
(assert (not (< (str.len (str.at lines 2)) 0)))
(assert (= (+ 0 (str.indexof (str.at lines 2) " " 0)) (- 1)))
(assert (not (< (str.len (str.at lines 2)) 0)))
(assert (= (+ 0 (str.indexof (str.at lines 2) " " 0)) (- 1)))
(assert (< 3 (str.len lines)))
(assert (not (< (str.len (str.at lines 3)) 0)))
(assert (= (+ 0 (str.indexof (str.at lines 3) "\n" 0)) (- 1)))
(assert (not (< (str.len (str.at lines 3)) 0)))
(assert (= (+ 0 (str.indexof (str.at lines 3) " " 0)) (- 1)))
(assert (not (< (str.len (str.at lines 3)) 0)))
(assert (= (+ 0 (str.indexof (str.at lines 3) " " 0)) (- 1)))
(assert (< 4 (str.len lines)))
(assert (not (< (str.len (str.at lines 4)) 0)))
(assert (= (+ 0 (str.indexof (str.at lines 4) "\n" 0)) (- 1)))
(assert (not (< (str.len (str.at lines 4)) 0)))
(assert (= (+ 0 (str.indexof (str.at lines 4) " " 0)) (- 1)))
(assert (not (< (str.len (str.at lines 4)) 0)))
(assert (= (+ 0 (str.indexof (str.at lines 4) " " 0)) (- 1)))
(assert (< 5 (str.len lines)))
(assert (not (< (str.len (str.at lines 5)) 0)))
(assert (= (+ 0 (str.indexof (str.at lines 5) "\n" 0)) (- 1)))
(assert (not (< (str.len (str.at lines 5)) 0)))
(assert (= (+ 0 (str.indexof (str.at lines 5) " " 0)) (- 1)))
(assert (not (< (str.len (str.at lines 5)) 0)))
(assert (= (+ 0 (str.indexof (str.at lines 5) " " 0)) (- 1)))
(assert (< 6 (str.len lines)))
(assert (not (< (str.len (str.at lines 6)) 0)))
(assert (= (+ 0 (str.indexof (str.at lines 6) "\n" 0)) (- 1)))
(assert (not (< (str.len (str.at lines 6)) 0)))
(assert (= (+ 0 (str.indexof (str.at lines 6) " " 0)) (- 1)))
(assert (not (< (str.len (str.at lines 6)) 0)))
(assert (= (+ 0 (str.indexof (str.at lines 6) " " 0)) (- 1)))
(assert (< 7 (str.len lines)))
(assert (not (< (str.len (str.at lines 7)) 0)))
(assert (= (+ 0 (str.indexof (str.at lines 7) "\n" 0)) (- 1)))
(assert (not (< (str.len (str.at lines 7)) 0)))
(assert (= (+ 0 (str.indexof (str.at lines 7) " " 0)) (- 1)))
(assert (not (< (str.len (str.at lines 7)) 0)))
(assert (= (+ 0 (str.indexof (str.at lines 7) " " 0)) (- 1)))
(assert (< 8 (str.len lines)))
(assert (not (< (str.len (str.at lines 8)) 0)))
(assert (= (+ 0 (str.indexof (str.at lines 8) "\n" 0)) (- 1)))
(assert (not (< (str.len (str.at lines 8)) 0)))
(assert (= (+ 0 (str.indexof (str.at lines 8) " " 0)) (- 1)))
(assert (not (< (str.len (str.at lines 8)) 0)))
(assert (= (+ 0 (str.indexof (str.at lines 8) " " 0)) (- 1)))
(assert (< 9 (str.len lines)))
(assert (not (< (str.len (str.at lines 9)) 0)))
(assert (= (+ 0 (str.indexof (str.at lines 9) "\n" 0)) (- 1)))
(assert (not (< (str.len (str.at lines 9)) 0)))
(assert (= (+ 0 (str.indexof (str.at lines 9) " " 0)) (- 1)))
(assert (not (< (str.len (str.at lines 9)) 0)))
(assert (= (+ 0 (str.indexof (str.at lines 9) " " 0)) (- 1)))
(assert (< 10 (str.len lines)))
(assert (not (< (str.len (str.at lines 10)) 0)))
(assert (= (+ 0 (str.indexof (str.at lines 10) "\n" 0)) (- 1)))
(assert (not (< (str.len (str.at lines 10)) 0)))
(assert (= (+ 0 (str.indexof (str.at lines 10) " " 0)) (- 1)))
(assert (not (< (str.len (str.at lines 10)) 0)))
(assert (= (+ 0 (str.indexof (str.at lines 10) " " 0)) (- 1)))
(assert (< 11 (str.len lines)))
(assert (not (< (str.len (ite (or (str.suffixof "N" (ite (or (str.prefixof "N" (str.at lines 11)) (str.prefixof "o" (str.at lines 11)) (str.prefixof "n" (str.at lines 11)) (str.prefixof "e" (str.at lines 11))) (str.substr (str.at lines 11) 1 (str.len (str.at lines 11))) (str.at lines 11))) (str.suffixof "o" (ite (or (str.prefixof "N" (str.at lines 11)) (str.prefixof "o" (str.at lines 11)) (str.prefixof "n" (str.at lines 11)) (str.prefixof "e" (str.at lines 11))) (str.substr (str.at lines 11) 1 (str.len (str.at lines 11))) (str.at lines 11))) (str.suffixof "n" (ite (or (str.prefixof "N" (str.at lines 11)) (str.prefixof "o" (str.at lines 11)) (str.prefixof "n" (str.at lines 11)) (str.prefixof "e" (str.at lines 11))) (str.substr (str.at lines 11) 1 (str.len (str.at lines 11))) (str.at lines 11))) (str.suffixof "e" (ite (or (str.prefixof "N" (str.at lines 11)) (str.prefixof "o" (str.at lines 11)) (str.prefixof "n" (str.at lines 11)) (str.prefixof "e" (str.at lines 11))) (str.substr (str.at lines 11) 1 (str.len (str.at lines 11))) (str.at lines 11)))) (str.substr (ite (or (str.prefixof "N" (str.at lines 11)) (str.prefixof "o" (str.at lines 11)) (str.prefixof "n" (str.at lines 11)) (str.prefixof "e" (str.at lines 11))) (str.substr (str.at lines 11) 1 (str.len (str.at lines 11))) (str.at lines 11)) 0 (- (str.len (ite (or (str.prefixof "N" (str.at lines 11)) (str.prefixof "o" (str.at lines 11)) (str.prefixof "n" (str.at lines 11)) (str.prefixof "e" (str.at lines 11))) (str.substr (str.at lines 11) 1 (str.len (str.at lines 11))) (str.at lines 11))) 1)) (ite (or (str.prefixof "N" (str.at lines 11)) (str.prefixof "o" (str.at lines 11)) (str.prefixof "n" (str.at lines 11)) (str.prefixof "e" (str.at lines 11))) (str.substr (str.at lines 11) 1 (str.len (str.at lines 11))) (str.at lines 11)))) 0)))
(assert (= (+ 0 (str.indexof (ite (or (str.suffixof "N" (ite (or (str.prefixof "N" (str.at lines 11)) (str.prefixof "o" (str.at lines 11)) (str.prefixof "n" (str.at lines 11)) (str.prefixof "e" (str.at lines 11))) (str.substr (str.at lines 11) 1 (str.len (str.at lines 11))) (str.at lines 11))) (str.suffixof "o" (ite (or (str.prefixof "N" (str.at lines 11)) (str.prefixof "o" (str.at lines 11)) (str.prefixof "n" (str.at lines 11)) (str.prefixof "e" (str.at lines 11))) (str.substr (str.at lines 11) 1 (str.len (str.at lines 11))) (str.at lines 11))) (str.suffixof "n" (ite (or (str.prefixof "N" (str.at lines 11)) (str.prefixof "o" (str.at lines 11)) (str.prefixof "n" (str.at lines 11)) (str.prefixof "e" (str.at lines 11))) (str.substr (str.at lines 11) 1 (str.len (str.at lines 11))) (str.at lines 11))) (str.suffixof "e" (ite (or (str.prefixof "N" (str.at lines 11)) (str.prefixof "o" (str.at lines 11)) (str.prefixof "n" (str.at lines 11)) (str.prefixof "e" (str.at lines 11))) (str.substr (str.at lines 11) 1 (str.len (str.at lines 11))) (str.at lines 11)))) (str.substr (ite (or (str.prefixof "N" (str.at lines 11)) (str.prefixof "o" (str.at lines 11)) (str.prefixof "n" (str.at lines 11)) (str.prefixof "e" (str.at lines 11))) (str.substr (str.at lines 11) 1 (str.len (str.at lines 11))) (str.at lines 11)) 0 (- (str.len (ite (or (str.prefixof "N" (str.at lines 11)) (str.prefixof "o" (str.at lines 11)) (str.prefixof "n" (str.at lines 11)) (str.prefixof "e" (str.at lines 11))) (str.substr (str.at lines 11) 1 (str.len (str.at lines 11))) (str.at lines 11))) 1)) (ite (or (str.prefixof "N" (str.at lines 11)) (str.prefixof "o" (str.at lines 11)) (str.prefixof "n" (str.at lines 11)) (str.prefixof "e" (str.at lines 11))) (str.substr (str.at lines 11) 1 (str.len (str.at lines 11))) (str.at lines 11))) "\n" 0)) (- 1)))
(assert (not (< (str.len (str.at lines 11)) 0)))
(assert (= (+ 0 (str.indexof (str.at lines 11) " " 0)) (- 1)))
(assert (not (< (str.len (str.at lines 11)) 0)))
(assert (= (+ 0 (str.indexof (str.at lines 11) " " 0)) (- 1)))
(assert (< 12 (str.len lines)))
(assert (not (< (str.len (str.at lines 12)) 0)))
(assert (= (+ 0 (str.indexof (str.at lines 12) "\n" 0)) (- 1)))
(assert (not (< (str.len (str.at lines 12)) 0)))
(assert (= (+ 0 (str.indexof (str.at lines 12) " " 0)) (- 1)))
(assert (not (< (str.len (str.at lines 12)) 0)))
(assert (= (+ 0 (str.indexof (str.at lines 12) " " 0)) (- 1)))
(assert (< 13 (str.len lines)))
(assert (not (< (str.len (str.at lines 13)) 0)))
(assert (= (+ 0 (str.indexof (str.at lines 13) "\n" 0)) (- 1)))
(assert (not (< (str.len (str.at lines 13)) 0)))
(assert (= (+ 0 (str.indexof (str.at lines 13) " " 0)) (- 1)))
(assert (not (< (str.len (str.at lines 13)) 0)))
(assert (= (+ 0 (str.indexof (str.at lines 13) " " 0)) (- 1)))
(assert (< 14 (str.len lines)))
(assert (not (< (str.len (str.at lines 14)) 0)))
(assert (= (+ 0 (str.indexof (str.at lines 14) "\n" 0)) (- 1)))
(assert (not (< (str.len (str.at lines 14)) 0)))
(assert (= (+ 0 (str.indexof (str.at lines 14) " " 0)) (- 1)))
(assert (not (< (str.len (str.at lines 14)) 0)))
(assert (= (+ 0 (str.indexof (str.at lines 14) " " 0)) (- 1)))
(assert (< 15 (str.len lines)))
(assert (not (< (str.len (str.at lines 15)) 0)))
(assert (= (+ 0 (str.indexof (str.at lines 15) "\n" 0)) (- 1)))
(assert (not (< (str.len (str.at lines 15)) 0)))
(assert (= (+ 0 (str.indexof (str.at lines 15) " " 0)) (- 1)))
(assert (not (< (str.len (str.at lines 15)) 0)))
(assert (= (+ 0 (str.indexof (str.at lines 15) " " 0)) (- 1)))
(assert (< 16 (str.len lines)))
(assert (not (< (str.len (str.at lines 16)) 0)))
(assert (= (+ 0 (str.indexof (str.at lines 16) "\n" 0)) (- 1)))
(assert (not (< (str.len (str.at lines 16)) 0)))
(assert (= (+ 0 (str.indexof (str.at lines 16) " " 0)) (- 1)))
(assert (not (< (str.len (str.at lines 16)) 0)))
(assert (= (+ 0 (str.indexof (str.at lines 16) " " 0)) (- 1)))
(assert (< 17 (str.len lines)))
(assert (not (< (str.len (str.at lines 17)) 0)))
(assert (= (+ 0 (str.indexof (str.at lines 17) "\n" 0)) (- 1)))
(assert (not (< (str.len (str.at lines 17)) 0)))
(assert (= (+ 0 (str.indexof (str.at lines 17) " " 0)) (- 1)))
(assert (not (< (str.len (str.at lines 17)) 0)))
(assert (= (+ 0 (str.indexof (str.at lines 17) " " 0)) (- 1)))
(assert (< 18 (str.len lines)))
(assert (not (< (str.len (str.at lines 18)) 0)))
(assert (= (+ 0 (str.indexof (str.at lines 18) "\n" 0)) (- 1)))
(assert (not (< (str.len (str.at lines 18)) 0)))
(assert (= (+ 0 (str.indexof (str.at lines 18) " " 0)) (- 1)))
(assert (not (< (str.len (str.at lines 18)) 0)))
(assert (= (+ 0 (str.indexof (str.at lines 18) " " 0)) (- 1)))
(assert (< 19 (str.len lines)))
(assert (not (< (str.len (str.at lines 19)) 0)))
(assert (= (+ 0 (str.indexof (str.at lines 19) "\n" 0)) (- 1)))
(assert (not (< (str.len (str.at lines 19)) 0)))
(assert (= (+ 0 (str.indexof (str.at lines 19) " " 0)) (- 1)))
(assert (not (< (str.len (str.at lines 19)) 0)))
(assert (= (+ 0 (str.indexof (str.at lines 19) " " 0)) (- 1)))
(assert (< 20 (str.len lines)))
(assert (not (< (str.len (str.at lines 20)) 0)))
(assert (= (+ 0 (str.indexof (str.at lines 20) "\n" 0)) (- 1)))
(assert (not (< (str.len (str.at lines 20)) 0)))
(assert (= (+ 0 (str.indexof (str.at lines 20) " " 0)) (- 1)))
(assert (not (< (str.len (str.at lines 20)) 0)))
(assert (= (+ 0 (str.indexof (str.at lines 20) " " 0)) (- 1)))
(assert (< 21 (str.len lines)))
(assert (not (< (str.len (str.at lines 21)) 0)))
(assert (= (+ 0 (str.indexof (str.at lines 21) "\n" 0)) (- 1)))
(assert (not (< (str.len (str.at lines 21)) 0)))
(assert (= (+ 0 (str.indexof (str.at lines 21) " " 0)) (- 1)))
(assert (not (< (str.len (str.at lines 21)) 0)))
(assert (= (+ 0 (str.indexof (str.at lines 21) " " 0)) (- 1)))
(assert (< 22 (str.len lines)))
(assert (not (< (str.len (str.at lines 22)) 0)))
(assert (= (+ 0 (str.indexof (str.at lines 22) "\n" 0)) (- 1)))
(assert (= (str.at lines 22) ""))
(assert (not (< (str.len (str.at lines 22)) 0)))
(assert (not (= (+ 0 (str.indexof (str.at lines 22) " " 0)) (- 1))))
(assert (not (< (+ 0 (str.indexof (str.at lines 22) " " 0)) 0)))
(assert (not (< (+ (+ 0 (str.indexof (str.at lines 22) " " 0)) 1) 0)))
(assert (not (< (str.len (str.at lines 22)) 0)))
(assert (not (< (str.len (str.substr (str.at lines 22) (+ (+ 0 (str.indexof (str.at lines 22) " " 0)) 1) (- (str.len (str.at lines 22)) (+ (+ 0 (str.indexof (str.at lines 22) " " 0)) 1)))) 0)))
(assert (not (= (+ 0 (str.indexof (str.substr (str.at lines 22) (+ (+ 0 (str.indexof (str.at lines 22) " " 0)) 1) (- (str.len (str.at lines 22)) (+ (+ 0 (str.indexof (str.at lines 22) " " 0)) 1))) " " 0)) (- 1))))
(check-sat)
(get-value (title))
(get-value (lines))
